sat

(objectives
 ((bvadd PriceProv5 (bvadd PriceProv4 (bvadd PriceProv3 (bvadd PriceProv1 PriceProv2)))) (_ bv1079 32))
)
;; statistics
(
 :cnf-variables 1438
 :cnf-literals 6325
 :cnf-clauses 2685
 :sat-checks 13
 :sat-restarts 22
 :sat-decisions 23113
 :sat-random-decisions 10
 :sat-propagations 59318484
 :sat-theory-propagations 3
 :sat-watched-clauses-visited 63655875
 :sat-binary-watched-clauses-visited 40118140
 :sat-conflicts 4719
 :sat-theory-conflicts 0
 :theory-necessary-interface-equalities 0
 :theory-extra-interface-equalities 0
 :euf-total-calls 24433
 :euf-complete-calls 14
 :euf-conflicts 0
 :euf-implications 3
 :euf-explanations 0
 :euf-egraph-nodes-created 8836
 :euf-egraph-nodes-deleted 6226
 :euf-num-asserted-equalities 308544
 :euf-num-asserted-inequalities 208746
 :euf-num-merges 510638
 :euf-num-merges-undone 510638
 :euf-num-atoms-retold 1216
 :la-total-calls 24433
 :la-complete-calls 14
 :la-conflicts 0
 :la-implications 0
 :la-explanations 0
 :la-num-equalities-split 0
 :la-num-tableau-rows 0
 :la-num-tableau-variables 0
 :bv-total-calls 24433
 :bv-complete-calls 14
 :bv-conflicts 0
 :bv-implications 0
 :bv-explanations 0
 :fp-total-calls 24433
 :fp-complete-calls 14
 :fp-conflicts 0
 :fp-implications 0
 :fp-explanations 0
 :arr-total-calls 24433
 :arr-complete-calls 14
 :arr-conflicts 0
 :arr-implications 0
 :arr-explanations 0
 :arr-write-lemmas-added 0
 :arr-row-lemmas-added 0
 :arr-ext-lemmas-added 0
 :arr-const-lemmas-added 0
 :na-total-calls 24433
 :na-complete-calls 14
 :na-conflicts 0
 :na-implications 0
 :na-explanations 0
 :na-num_nonlinear_multiplications 0
 :na-num_axiom_checks 0
 :na-num_zero_lemmas 0
 :na-num_sign_lemmas 0
 :na-num_neutral_lemmas 0
 :na-num_proportionality_lemmas 0
 :na-num_bound_lemmas 0
 :na-num_tangent_lemmas 0
 :na-num_monotonicity_lemmas 0
 :na-num_sat_checks 0
 :na-axiom_check_time 0.000
 :na-sat_check_time 0.000
 :time-seconds 7.614
 :memory-mb 58.967
)
